c uprop, v00.0, 
c reading from data/prog16.c.cnf
c done reading: 0.00372
p cnf 185 849
-90 -110 0
-90 -106 0
90 106 110 0
-84 106 110 0
-84 -106 -110 0
84 106 -110 0
84 -106 110 0
90 -102 0
-100 -102 0
-90 100 102 0
-90 -95 100 0
90 -95 -100 0
90 95 100 0
-90 95 -100 0
-91 102 0
-88 -91 0
88 91 -102 0
-86 88 -102 0
-86 -88 102 0
86 88 102 0
86 -88 -102 0
-85 91 0
-82 -85 0
82 85 -91 0
82 -91 -108 0
-82 91 -108 0
82 91 108 0
-82 -91 108 0
85 -112 0
-104 -112 0
-85 104 112 0
-85 104 -113 0
85 -104 -113 0
85 104 113 0
-85 -104 113 0
112 -114 0
-97 -114 0
97 -112 114 0
97 -112 -115 0
-97 112 -115 0
97 112 115 0
-97 -112 115 0
114 -116 0
-93 -116 0
93 -114 116 0
93 -114 -117 0
-93 114 -117 0
93 114 117 0
-93 -114 117 0
106 -118 0
110 -118 0
-106 -110 118 0
-106 -110 -119 0
106 110 -119 0
-106 110 119 0
106 -110 119 0
-100 -106 120 0
-100 -118 120 0
-106 -118 120 0
100 106 -120 0
100 118 -120 0
106 118 -120 0
100 -120 -121 0
106 -120 -121 0
118 -120 -121 0
-100 120 121 0
-106 120 121 0
-118 120 121 0
-100 -106 -118 121 0
100 106 118 -121 0
-88 -100 122 0
-88 -120 122 0
-100 -120 122 0
88 100 -122 0
88 120 -122 0
100 120 -122 0
88 -122 -123 0
100 -122 -123 0
120 -122 -123 0
-88 122 123 0
-100 122 123 0
-120 122 123 0
-88 -100 -120 123 0
88 100 120 -123 0
-82 -88 124 0
-82 -122 124 0
-88 -122 124 0
82 88 -124 0
82 122 -124 0
88 122 -124 0
-80 82 -124 0
-80 88 -124 0
-80 122 -124 0
80 -82 124 0
80 -88 124 0
80 -122 124 0
80 -82 -88 -122 0
-80 82 88 122 0
79 -82 -104 0
79 -104 -124 0
79 -82 -124 0
-79 82 104 0
-79 104 124 0
-79 82 124 0
-78 -79 104 0
-78 -79 82 0
-78 -79 124 0
78 79 -104 0
78 79 -82 0
78 79 -124 0
78 -82 -104 -124 0
-78 82 104 124 0
77 -97 -104 0
77 -79 -97 0
77 -79 -104 0
-77 97 104 0
-77 79 97 0
-77 79 104 0
-76 -77 97 0
-76 -77 104 0
-76 -77 79 0
76 77 -97 0
76 77 -104 0
76 77 -79 0
76 -79 -97 -104 0
-76 79 97 104 0
75 -93 -97 0
75 -77 -93 0
75 -77 -97 0
-75 93 97 0
-75 77 93 0
-75 77 97 0
-75 93 -109 0
-75 97 -109 0
-75 77 -109 0
75 -93 109 0
75 -97 109 0
75 -77 109 0
-77 -93 -97 109 0
77 93 97 -109 0
93 -105 0
75 -105 0
-75 -93 105 0
-75 -93 -99 0
75 93 -99 0
75 -93 99 0
-75 93 99 0
-87 121 0
-87 110 0
87 -110 -121 0
-81 -110 -121 0
-81 110 121 0
81 110 -121 0
81 -110 121 0
103 -106 -123 0
-87 103 -123 0
-87 103 -106 0
-103 106 123 0
87 -103 123 0
87 -103 106 0
-96 -103 123 0
-96 -103 106 0
87 -96 -103 0
96 103 -123 0
96 103 -106 0
-87 96 103 0
-87 96 -106 -123 0
87 -96 106 123 0
-80 92 -100 0
-80 92 -103 0
92 -100 -103 0
80 -92 100 0
80 -92 103 0
-92 100 103 0
-74 80 -92 0
-74 -92 100 0
-74 -92 103 0
74 -80 92 0
74 92 -100 0
74 92 -103 0
74 -80 -100 -103 0
-74 80 100 103 0
73 -78 -88 0
73 -78 -92 0
73 -88 -92 0
-73 78 88 0
-73 78 92 0
-73 88 92 0
-72 -73 78 0
-72 -73 88 0
-72 -73 92 0
72 73 -78 0
72 73 -88 0
72 73 -92 0
72 -78 -88 -92 0
-72 78 88 92 0
71 -76 -82 0
71 -73 -76 0
71 -73 -82 0
-71 76 82 0
-71 73 76 0
-71 73 82 0
-70 -71 76 0
-70 -71 82 0
-70 -71 73 0
70 71 -76 0
70 71 -82 0
70 71 -73 0
70 -73 -76 -82 0
-70 73 76 82 0
69 -104 -109 0
69 -71 -109 0
69 -71 -104 0
-69 104 109 0
-69 71 109 0
-69 71 104 0
-68 -69 109 0
-68 -69 104 0
-68 -69 71 0
68 69 -109 0
68 69 -104 0
68 69 -71 0
68 -71 -104 -109 0
-68 71 104 109 0
67 -97 -99 0
67 -69 -99 0
67 -69 -97 0
-67 97 99 0
-67 69 99 0
-67 69 97 0
-66 -67 99 0
-66 -67 97 0
-66 -67 69 0
66 67 -99 0
66 67 -97 0
66 67 -69 0
66 -69 -97 -99 0
-66 69 97 99 0
65 -93 -105 0
65 -67 -105 0
65 -67 -93 0
-65 93 105 0
-65 67 105 0
-65 67 93 0
-64 -65 105 0
-64 -65 93 0
-64 -65 67 0
64 65 -105 0
64 65 -93 0
64 65 -67 0
64 -67 -93 -105 0
-64 67 93 105 0
-63 74 0
-63 110 0
63 -74 -110 0
-74 110 0
74 -110 0
62 -72 -106 0
62 -63 -72 0
62 -63 -106 0
-62 72 106 0
-62 63 72 0
-62 63 106 0
62 -72 0
62 -106 0
62 -63 0
-63 -72 -106 0
61 -70 -100 0
61 -62 -70 0
61 -62 -100 0
-61 70 100 0
-61 62 70 0
-61 62 100 0
61 -70 0
61 -100 0
61 -62 0
-62 -70 -100 0
60 -68 -88 0
60 -61 -68 0
60 -61 -88 0
-60 68 88 0
-60 61 68 0
-60 61 88 0
60 -68 0
60 -88 0
60 -61 0
-61 -68 -88 0
59 -66 -82 0
59 -60 -66 0
59 -60 -82 0
-59 66 82 0
-59 60 66 0
-59 60 82 0
59 -66 0
59 -82 0
59 -60 0
-60 -66 -82 0
-64 -104 125 0
-59 -64 125 0
-59 -104 125 0
64 104 -125 0
59 64 -125 0
59 104 -125 0
-64 125 0
-104 125 0
-59 125 0
-59 -64 -104 0
-65 -97 126 0
-65 -125 126 0
-97 -125 126 0
65 97 -126 0
65 125 -126 0
97 125 -126 0
-65 126 0
-97 126 0
-125 126 0
-65 -97 -125 0
-93 -126 0
-93 126 0
93 -126 0
-110 -127 0
-119 -127 0
110 119 127 0
110 119 -128 0
-110 -119 -128 0
-110 119 128 0
110 -119 128 0
127 -129 0
-81 -129 0
81 -127 129 0
81 -127 -130 0
-81 127 -130 0
81 127 130 0
-81 -127 130 0
129 -131 0
-96 -131 0
96 -129 131 0
96 -129 -132 0
-96 129 -132 0
96 129 132 0
-96 -129 132 0
131 -133 0
-131 133 0
-131 -134 0
131 134 0
133 -135 0
-133 135 0
-133 -136 0
133 136 0
135 -137 0
-135 137 0
-135 -138 0
135 138 0
137 -139 0
-137 139 0
-137 -140 0
137 140 0
139 -141 0
-139 141 0
-139 -142 0
139 142 0
141 -143 0
-141 143 0
-141 -144 0
141 144 0
143 -145 0
-143 145 0
-143 -146 0
143 146 0
145 -147 0
-145 147 0
-145 -148 0
145 148 0
147 -149 0
-147 149 0
-147 -150 0
147 150 0
-151 -153 0
151 153 0
151 -154 0
-151 154 0
153 -155 0
-155 -156 0
-153 155 156 0
-153 156 -158 0
153 -156 -158 0
153 156 158 0
-153 -156 158 0
155 -159 0
-159 -160 0
-155 159 160 0
-155 160 -162 0
155 -160 -162 0
155 160 162 0
-155 -160 162 0
159 -163 0
-163 -164 0
-159 163 164 0
-159 164 -166 0
159 -164 -166 0
159 164 166 0
-159 -164 166 0
163 -167 0
-167 -168 0
-163 167 168 0
-111 -163 168 0
-111 163 -168 0
111 163 168 0
111 -163 -168 0
-107 167 0
-107 -170 0
107 -167 170 0
-101 -167 170 0
-101 167 -170 0
101 167 170 0
101 -167 -170 0
-89 107 0
-89 -172 0
89 -107 172 0
-83 -107 172 0
-83 107 -172 0
83 107 172 0
83 -107 -172 0
-98 151 0
98 -151 0
94 -151 -156 0
-94 151 156 0
-94 156 0
-94 151 0
-94 156 -174 0
-94 151 -174 0
-94 -174 0
94 -156 174 0
94 -151 174 0
151 156 -174 0
152 -156 -160 0
-94 152 -160 0
-94 152 -156 0
-152 156 160 0
94 -152 160 0
94 -152 156 0
-152 -157 160 0
-152 156 -157 0
94 -152 -157 0
152 157 -160 0
152 -156 157 0
-94 152 157 0
-94 -156 157 -160 0
94 156 -157 160 0
-160 161 -164 0
-152 161 -164 0
-152 -160 161 0
160 -161 164 0
152 -161 164 0
152 160 -161 0
-161 164 -165 0
160 -161 -165 0
152 -161 -165 0
161 -164 165 0
-160 161 165 0
-152 161 165 0
-152 -160 -164 165 0
152 160 164 -165 0
-164 -168 169 0
-161 -168 169 0
-161 -164 169 0
164 168 -169 0
161 168 -169 0
161 164 -169 0
168 -169 -171 0
164 -169 -171 0
161 -169 -171 0
-168 169 171 0
-164 169 171 0
-161 169 171 0
-161 -164 -168 171 0
161 164 168 -171 0
-168 -170 173 0
-169 -170 173 0
-168 -169 173 0
168 170 -173 0
169 170 -173 0
168 169 -173 0
170 -173 -175 0
168 -173 -175 0
169 -173 -175 0
-170 173 175 0
-168 173 175 0
-169 173 175 0
-168 -169 -170 175 0
168 169 170 -175 0
-170 -172 176 0
-172 -173 176 0
-170 -173 176 0
170 172 -176 0
172 173 -176 0
170 173 -176 0
172 -176 -177 0
170 -176 -177 0
173 -176 -177 0
-172 176 177 0
-170 176 177 0
-173 176 177 0
-170 -172 -173 177 0
170 172 173 -177 0
172 -178 0
176 -178 0
-172 -176 178 0
-172 -176 -179 0
172 176 -179 0
-172 176 179 0
172 -176 179 0
174 -180 0
-174 180 0
-151 -157 181 0
151 157 -181 0
157 -181 0
151 -181 0
157 -181 -182 0
151 -181 -182 0
-181 -182 0
-157 181 182 0
-151 181 182 0
151 157 -182 0
-156 -165 183 0
-165 -181 183 0
-156 -181 183 0
156 165 -183 0
165 181 -183 0
156 181 -183 0
165 -183 -184 0
156 -183 -184 0
181 -183 -184 0
-165 183 184 0
-156 183 184 0
-181 183 184 0
-156 -165 -181 184 0
156 165 181 -184 0
-160 -171 185 0
-171 -183 185 0
-160 -183 185 0
160 171 -185 0
171 183 -185 0
160 183 -185 0
-58 171 -185 0
-58 160 -185 0
-58 183 -185 0
58 -171 185 0
58 -160 185 0
58 -183 185 0
58 -160 -171 -183 0
-58 160 171 183 0
57 -164 -175 0
57 -175 -185 0
57 -164 -185 0
-57 164 175 0
-57 175 185 0
-57 164 185 0
-56 -57 175 0
-56 -57 164 0
-56 -57 185 0
56 57 -175 0
56 57 -164 0
56 57 -185 0
56 -164 -175 -185 0
-56 164 175 185 0
55 -168 -177 0
55 -57 -177 0
55 -57 -168 0
-55 168 177 0
-55 57 177 0
-55 57 168 0
-54 -55 177 0
-54 -55 168 0
-54 -55 57 0
54 55 -177 0
54 55 -168 0
54 55 -57 0
54 -57 -168 -177 0
-54 57 168 177 0
53 -170 -179 0
53 -55 -179 0
53 -55 -170 0
-53 170 179 0
-53 55 179 0
-53 55 170 0
-52 -53 179 0
-52 -53 170 0
-52 -53 55 0
52 53 -179 0
52 53 -170 0
52 53 -55 0
52 -55 -170 -179 0
-52 55 170 179 0
51 -172 -178 0
51 -53 -178 0
51 -53 -172 0
-51 172 178 0
-51 53 178 0
-51 53 172 0
-50 -51 178 0
-50 -51 172 0
-50 -51 53 0
50 51 -178 0
50 51 -172 0
50 51 -53 0
50 -53 -172 -178 0
-50 53 172 178 0
-49 182 0
49 -182 0
48 -151 -184 0
-48 151 184 0
-48 184 0
-48 151 0
-47 -48 184 0
-47 -48 151 0
-47 -48 0
47 48 -184 0
47 48 -151 0
-47 151 184 0
46 -58 -156 0
46 -48 -58 0
46 -48 -156 0
-46 58 156 0
-46 48 58 0
-46 48 156 0
46 -58 0
46 -156 0
46 -48 0
-48 -58 -156 0
45 -56 -160 0
45 -46 -56 0
45 -46 -160 0
-45 56 160 0
-45 46 56 0
-45 46 160 0
-44 -45 56 0
-44 -45 160 0
-44 -45 46 0
44 45 -56 0
44 45 -160 0
44 45 -46 0
44 -46 -56 -160 0
-44 46 56 160 0
43 -54 -164 0
43 -45 -54 0
43 -45 -164 0
-43 54 164 0
-43 45 54 0
-43 45 164 0
-42 -43 54 0
-42 -43 164 0
-42 -43 45 0
42 43 -54 0
42 43 -164 0
42 43 -45 0
42 -45 -54 -164 0
-42 45 54 164 0
41 -52 -168 0
41 -43 -52 0
41 -43 -168 0
-41 52 168 0
-41 43 52 0
-41 43 168 0
-40 -41 52 0
-40 -41 168 0
-40 -41 43 0
40 41 -52 0
40 41 -168 0
40 41 -43 0
40 -43 -52 -168 0
-40 43 52 168 0
39 -50 -170 0
39 -41 -50 0
39 -41 -170 0
-39 50 170 0
-39 41 50 0
-39 41 170 0
-38 -39 50 0
-38 -39 170 0
-38 -39 41 0
38 39 -50 0
38 39 -170 0
38 39 -41 0
38 -41 -50 -170 0
-38 41 50 170 0
37 -51 -172 0
37 -39 -51 0
37 -39 -172 0
-37 51 172 0
-37 39 51 0
-37 39 172 0
-36 -37 51 0
-36 -37 172 0
-36 -37 39 0
36 37 -51 0
36 37 -172 0
36 37 -39 0
36 -39 -51 -172 0
-36 39 51 172 0
35 -44 -151 0
-35 44 151 0
-35 44 0
-35 151 0
35 -44 0
35 -151 0
34 -42 -156 0
34 -35 -42 0
34 -35 -156 0
-34 42 156 0
-34 35 42 0
-34 35 156 0
34 -42 0
34 -156 0
34 -35 0
-35 -42 -156 0
33 -40 -160 0
33 -34 -40 0
33 -34 -160 0
-33 40 160 0
-33 34 40 0
-33 34 160 0
33 -40 0
33 -160 0
33 -34 0
-34 -40 -160 0
32 -38 -164 0
32 -33 -38 0
32 -33 -164 0
-32 38 164 0
-32 33 38 0
-32 33 164 0
32 -38 0
32 -164 0
32 -33 0
-33 -38 -164 0
31 -36 -168 0
31 -32 -36 0
31 -32 -168 0
-31 36 168 0
-31 32 36 0
-31 32 168 0
31 -36 0
31 -168 0
31 -32 0
-32 -36 -168 0
30 -37 -170 0
30 -31 -37 0
30 -31 -170 0
-30 37 170 0
-30 31 37 0
-30 31 170 0
30 -37 0
30 -170 0
30 -31 0
-31 -37 -170 0
-30 -172 0
30 -172 0
-30 172 0
-29 -98 0
29 98 0
-28 98 0
28 -98 0
-27 29 0
-27 -180 0
27 -29 180 0
-26 -29 180 0
-26 29 -180 0
26 29 180 0
26 -29 -180 0
-25 27 0
-25 -49 0
25 -27 49 0
-24 -27 49 0
-24 27 -49 0
24 27 49 0
24 -27 -49 0
-23 25 0
-23 -47 0
23 -25 47 0
-22 -25 47 0
-22 25 -47 0
22 25 47 0
22 -25 -47 0
-21 23 0
21 -23 0
-20 -23 0
20 23 0
-19 21 0
19 -21 0
-18 -21 0
18 21 0
-17 19 0
17 -19 0
-16 -19 0
16 19 0
-15 17 0
15 -17 0
-14 -17 0
14 17 0
-13 15 0
13 -15 0
-12 -15 0
12 15 0
-11 13 0
11 -13 0
-10 -13 0
10 13 0
-9 11 0
9 -11 0
-8 -11 0
8 11 0
-7 9 0
7 -9 0
-6 -9 0
6 9 0
-5 7 0
5 -7 0
-4 -7 0
4 7 0
-3 110 0
-3 98 0
3 -98 -110 0
98 -110 0
-98 110 0
2 -119 -180 0
2 -3 -119 0
2 -3 -180 0
-2 119 180 0
-2 3 119 0
-2 3 180 0
2 -119 0
2 -180 0
2 -3 0
-3 -119 -180 0
1 -49 -81 0
1 -2 -81 0
1 -2 -49 0
-1 49 81 0
-1 2 81 0
-1 2 49 0
-1 81 0
-1 49 0
-1 2 0
2 49 81 0
-47 -96 0
-1 -96 0
-1 -47 0
1 47 96 0
